      12       36 
      20       46 
      53       32 
      49       64 
      15       16 
      61       34 
      41        6 
      38       51 
      52       39 
       5       47 
      13        3 
      40       27 
       4       11 
      45       30 
      33       28 
      54       23 
      56       43 
      10        7 
      21       24 
      42       14 
      55       48 
      58       60 
      31        8 
       1       57 
      26       44 
      37       35 
      17       19 
      50        2 
      62       25 
      59       63 
      22       29 
       0       18 
       0        9 
